; 
(set-info :status unknown)
(declare-fun node_0x7ffff2baa200 () (_ BitVec 64))
(declare-fun node_0x7ffff2b84430 () (_ BitVec 1))
(declare-fun node_0x7ffff2b84700 () (_ BitVec 1))
(declare-fun node_0x7ffff2b85d10 () (_ BitVec 1))
(declare-fun node_0x7ffff2b868b0 () (_ BitVec 1))
(declare-fun node_0x7ffff2b874e0 () (_ BitVec 1))
(declare-fun node_0x7ffff2b880b0 () (_ BitVec 1))
(declare-fun node_0x7ffff2b88d60 () (_ BitVec 1))
(declare-fun node_0x7ffff2b8b6a0 () (_ BitVec 1))
(declare-fun ccso_node_0x7ffff2bd8ac0 () (_ BitVec 32))
(declare-fun islt_0x7ffff2bd8ce0 () (_ BitVec 1))
(declare-fun islt_0x7ffff2bd9150 () (_ BitVec 1))
(declare-fun node_0x7ffff2bc15c0 () (_ BitVec 32))
(declare-fun f2si_0x7ffff2bc1760 () (_ BitVec 32))
(declare-fun node_0x7ffff2bc1210 () (_ BitVec 64))
(declare-fun fadd_0x7ffff2bc1390 () (_ BitVec 64))
(declare-fun node_0x7ffff2bc0df0 () (_ BitVec 64))
(declare-fun fdiv_0x7ffff2bc0f90 () (_ BitVec 64))
(declare-fun node_0x7ffff2bbbd50 () (_ BitVec 64))
(declare-fun node_0x7ffff2bb5b00 () (_ BitVec 64))
(declare-fun fsub_0x7ffff2bb5ca0 () (_ BitVec 64))
(declare-fun LdMem_0x7ffff2bb5830 () (_ BitVec 64))
(declare-fun node_0x7ffff2bb56b0 () (_ BitVec 64))
(declare-fun pcso_node_0xbd64880 () (_ BitVec 64))
(declare-fun StMem_0x19689e90 () (_ BitVec 64))
(declare-fun R0x7ffff2b827c0 () (_ BitVec 1))
(declare-fun node_0x7ffff2bb4e90 () (_ BitVec 64))
(declare-fun LdMem_0x7ffff2bb5010 () (_ BitVec 64))
(declare-fun pcso_node_0x196dad70 () (_ BitVec 64))
(declare-fun StMem_0xbd62f80 () (_ BitVec 64))
(declare-fun islt_0x7ffff2bd9550 () (_ BitVec 1))
(declare-fun node_0x7ffff2bc21e0 () (_ BitVec 32))
(declare-fun f2si_0x7ffff2bc2380 () (_ BitVec 32))
(declare-fun node_0x7ffff2bc1e30 () (_ BitVec 64))
(declare-fun fadd_0x7ffff2bc1fb0 () (_ BitVec 64))
(declare-fun node_0x7ffff2bc1a00 () (_ BitVec 64))
(declare-fun fdiv_0x7ffff2bc1ba0 () (_ BitVec 64))
(declare-fun node_0x7ffff2bb6fd0 () (_ BitVec 64))
(declare-fun fsub_0x7ffff2bb7170 () (_ BitVec 64))
(declare-fun LdMem_0x7ffff2bb6d00 () (_ BitVec 64))
(declare-fun node_0x7ffff2bb6b80 () (_ BitVec 64))
(declare-fun pcso_node_0xbda11c0 () (_ BitVec 64))
(declare-fun StMem_0xbd64aa0 () (_ BitVec 64))
(declare-fun node_0x7ffff2bb6300 () (_ BitVec 64))
(declare-fun LdMem_0x7ffff2bb6480 () (_ BitVec 64))
(declare-fun pcso_node_0x196daeb0 () (_ BitVec 64))
(declare-fun StMem_0xbda29e0 () (_ BitVec 64))
(declare-fun islt_0x7ffff2bd98c0 () (_ BitVec 1))
(declare-fun node_0x7ffff2bc2df0 () (_ BitVec 32))
(declare-fun f2si_0x7ffff2bc2f90 () (_ BitVec 32))
(declare-fun node_0x7ffff2bc2a20 () (_ BitVec 64))
(declare-fun fadd_0x7ffff2bc2bc0 () (_ BitVec 64))
(declare-fun node_0x7ffff2bc2620 () (_ BitVec 64))
(declare-fun fdiv_0x7ffff2bc27c0 () (_ BitVec 64))
(declare-fun fmul_0x7ffff2bbbeb0 () (_ BitVec 64))
(declare-fun ccso_node_0x7ffff2bbb910 () (_ BitVec 64))
(declare-fun node_0x7ffff2bba980 () (_ BitVec 64))
(declare-fun fdiv_0x7ffff2bbab20 () (_ BitVec 64))
(declare-fun node_0x7ffff2bb8dc0 () (_ BitVec 64))
(declare-fun LdMem_0x7ffff2bb8f40 () (_ BitVec 64))
(declare-fun carg_node_0x7ffff2b83440 () (_ BitVec 64))
(declare-fun StMem_0x7ffff2baf4a0 () (_ BitVec 64))
(declare-fun node_0x7ffff2bb8480 () (_ BitVec 64))
(declare-fun fsub_0x7ffff2bb8620 () (_ BitVec 64))
(declare-fun LdMem_0x7ffff2bb81b0 () (_ BitVec 64))
(declare-fun node_0x7ffff2bb8010 () (_ BitVec 64))
(declare-fun pcso_node_0xbdb5b20 () (_ BitVec 64))
(declare-fun StMem_0xbdb5ca0 () (_ BitVec 64))
(declare-fun node_0x7ffff2bb77a0 () (_ BitVec 64))
(declare-fun LdMem_0x7ffff2bb7940 () (_ BitVec 64))
(declare-fun pcso_node_0x196daff0 () (_ BitVec 64))
(declare-fun StMem_0xbdac0c0 () (_ BitVec 64))
(declare-fun ccso_node_0x7ffff2bdc410 () (_ BitVec 32))
(declare-fun ieq_0x7ffff2bdc630 () (_ BitVec 1))
(declare-fun and_0x7ffff2be1470 () (_ BitVec 1))
(declare-fun carg_node_0x7ffff2b83740 () (_ BitVec 32))
(declare-fun ine_0x7ffff2be1120 () (_ BitVec 1))
(declare-fun node_0x7ffff2be0f80 () (_ BitVec 1))
(declare-fun node_0x7ffff2be0a90 () (_ BitVec 1))
(declare-fun carg_node_0x7ffff2b835c0 () (_ BitVec 32))
(declare-fun ccso_node_0x7ffff2be08a0 () (_ BitVec 32))
(declare-fun isgt_0x7ffff2be0c10 () (_ BitVec 1))
(declare-fun ine_0x7ffff2bda930 () (_ BitVec 1))
(declare-fun node_0x7ffff2bda590 () (_ BitVec 64))
(declare-fun LdMem_0x7ffff2bda6f0 () (_ BitVec 64))
(declare-fun pcso_node_0x196fab30 () (_ BitVec 64))
(declare-fun StMem_0x196face0 () (_ BitVec 64))
(declare-fun pcso_node_0x196eb680 () (_ BitVec 64))
(declare-fun StMem_0x196eb7c0 () (_ BitVec 64))
(declare-fun R0xbea8520 () (_ BitVec 1))
(declare-fun R0xbe9eb10 () (_ BitVec 1))
(declare-fun and_0xbeaa1c0 () (_ BitVec 1))
(declare-fun R0xbea9f80 () (_ BitVec 1))
(declare-fun R0xbeaa7b0 () (_ BitVec 1))
(declare-fun and_0xbeaab40 () (_ BitVec 1))
(declare-fun R0xbeaa380 () (_ BitVec 1))
(declare-fun R0xbea7b50 () (_ BitVec 1))
(declare-fun R0xbe94da0 () (_ BitVec 1))
(declare-fun and_0xbea8840 () (_ BitVec 1))
(declare-fun xor_0xbeaa560 () (_ BitVec 1))
(declare-fun and_0xbe9ee30 () (_ BitVec 1))
(declare-fun R0x7ffff2b83ef0 () (_ BitVec 1))
(declare-fun ccso_node_0x7ffff2bd6620 () (_ BitVec 32))
(declare-fun islt_0x7ffff2bd6840 () (_ BitVec 1))
(declare-fun node_0x1971c550 () (_ BitVec 32))
(declare-fun parg_node_0x1151b690_CS0x4044400 () (_ BitVec 32))
(declare-fun LdMem_0x1971a1d0 () (_ BitVec 32))
(declare-fun pcso_node_0x196fd890 () (_ BitVec 32))
(declare-fun StMem_0x196ffcf0 () (_ BitVec 32))
(declare-fun R0xbeae030 () (_ BitVec 1))
(declare-fun and_0xbeae330 () (_ BitVec 1))
(declare-fun R0xbeab3d0 () (_ BitVec 1))
(declare-fun R0xbe9d6c0 () (_ BitVec 1))
(declare-fun and_0xbeab790 () (_ BitVec 1))
(declare-fun return_node_0x7ffff2c309b0_CS0x4044400 () (_ BitVec 32))
(declare-fun node_0x1970e0c0 () (_ BitVec 32))
(declare-fun parg_node_0x1151b690_CS0x4043330 () (_ BitVec 32))
(declare-fun LdMem_0x1970bd40 () (_ BitVec 32))
(declare-fun return_node_0x7ffff2c309b0_CS0x4043330 () (_ BitVec 32))
(declare-fun node_0x196eeb60 () (_ BitVec 32))
(declare-fun parg_node_0x1151b690_CS0x4041bb0 () (_ BitVec 32))
(declare-fun LdMem_0x196eca10 () (_ BitVec 32))
(declare-fun parg_node_0x196dbd50 () (_ BitVec 32))
(declare-fun StMem_0x196dbc40 () (_ BitVec 32))
(declare-fun return_node_0x7ffff2c309b0_CS0x4041bb0 () (_ BitVec 32))
(declare-fun node_0x19704cf0 () (_ BitVec 32))
(declare-fun parg_node_0x1151b690_CS0x4049a80 () (_ BitVec 32))
(declare-fun LdMem_0x19702970 () (_ BitVec 32))
(declare-fun return_node_0x7ffff2c309b0_CS0x4049a80 () (_ BitVec 32))
(declare-fun carg_node_0x7ffff2c351c0_CS0x4041730 () (_ BitVec 32))
(declare-fun carg_node_0x7ffff2c34e60_CS0x4041730 () (_ BitVec 32))
(declare-fun carg_node_0x7ffff2c35640_CS0x4041730 () (_ BitVec 64))
(declare-fun carg_node_0x7ffff2c34fc0_CS0x4041730 () (_ BitVec 32))
(declare-fun node_0x196e74e0 () (_ BitVec 64))
(declare-fun parg_node_0x19582c60_CS0x4041730 () (_ BitVec 64))
(declare-fun LdMem_0x196e7280 () (_ BitVec 64))
(declare-fun pcso_node_0x196d3a10 () (_ BitVec 64))
(declare-fun StMem_0x196d3b90 () (_ BitVec 64))
(declare-fun node_0x196e7850 () (_ BitVec 64))
(declare-fun parg_node_0x19583480_CS0x4041730 () (_ BitVec 64))
(declare-fun LdMem_0x196e76e0 () (_ BitVec 64))
(declare-fun node_0x196e9290 () (_ BitVec 32))
(declare-fun parg_node_0x19582710_CS0x4041730 () (_ BitVec 32))
(declare-fun LdMem_0x196e7140 () (_ BitVec 32))
(declare-fun pcso_node_0x196d3ce0 () (_ BitVec 32))
(declare-fun StMem_0x196d3e60 () (_ BitVec 32))
(declare-fun node_0x1959c8d0_CS0x4041730 () (_ BitVec 64))
(declare-fun node_0x196f0f60 () (_ BitVec 32))
(declare-fun parg_node_0xbd1c420_CS0x4042238 () (_ BitVec 32))
(declare-fun LdMem_0x196f0bf0 () (_ BitVec 32))
(declare-fun pcso_node_0x196ea1b0 () (_ BitVec 32))
(declare-fun StMem_0x196ea2f0 () (_ BitVec 32))
(declare-fun node_0x196f5a20 () (_ BitVec 64))
(declare-fun parg_node_0x1964bd40_CS0x4042238 () (_ BitVec 64))
(declare-fun LdMem_0x196f56b0 () (_ BitVec 64))
(declare-fun pcso_node_0x196e9ac0 () (_ BitVec 64))
(declare-fun StMem_0x196e9c00 () (_ BitVec 64))
(declare-fun node_0x196f09f0 () (_ BitVec 32))
(declare-fun parg_node_0xbd0e560_CS0x4042238 () (_ BitVec 32))
(declare-fun LdMem_0x196f0680 () (_ BitVec 32))
(declare-fun pcso_node_0x196e9f60 () (_ BitVec 32))
(declare-fun StMem_0x196ea0a0 () (_ BitVec 32))
(declare-fun node_0x196f54b0 () (_ BitVec 64))
(declare-fun parg_node_0x1964b510_CS0x4042238 () (_ BitVec 64))
(declare-fun LdMem_0x196f5140 () (_ BitVec 64))
(declare-fun pcso_node_0x196e9870 () (_ BitVec 64))
(declare-fun StMem_0x196e99b0 () (_ BitVec 64))
(declare-fun node_0x196f2750 () (_ BitVec 32))
(declare-fun parg_node_0x19647ca0_CS0x4042238 () (_ BitVec 32))
(declare-fun LdMem_0x196f0420 () (_ BitVec 32))
(declare-fun pcso_node_0x196e9d10 () (_ BitVec 32))
(declare-fun StMem_0x196e9e50 () (_ BitVec 32))
(declare-fun node_0x196f6cf0 () (_ BitVec 64))
(declare-fun parg_node_0x1964a4b0_CS0x4042238 () (_ BitVec 64))
(declare-fun LdMem_0x196f47c0 () (_ BitVec 64))
(declare-fun pcso_node_0x196d20c0 () (_ BitVec 64))
(declare-fun StMem_0x196d2240 () (_ BitVec 64))
(declare-fun node_0x196f4f40 () (_ BitVec 64))
(declare-fun parg_node_0x1964ace0_CS0x4042238 () (_ BitVec 64))
(declare-fun LdMem_0x196f4bd0 () (_ BitVec 64))
(declare-fun pcso_node_0x196e9620 () (_ BitVec 64))
(declare-fun StMem_0x196e9760 () (_ BitVec 64))
(declare-fun node_0x196f45c0 () (_ BitVec 64))
(declare-fun parg_node_0x19649c90_CS0x4042238 () (_ BitVec 64))
(declare-fun LdMem_0x196f4250 () (_ BitVec 64))
(declare-fun pcso_node_0x196d19b0 () (_ BitVec 64))
(declare-fun StMem_0x196d1af0 () (_ BitVec 64))
(declare-fun node_0x196f4050 () (_ BitVec 64))
(declare-fun parg_node_0x19649440_CS0x4042238 () (_ BitVec 64))
(declare-fun LdMem_0x196f3ce0 () (_ BitVec 64))
(declare-fun pcso_node_0x196d1e50 () (_ BitVec 64))
(declare-fun StMem_0x196d1f90 () (_ BitVec 64))
(declare-fun node_0x196f3ae0 () (_ BitVec 64))
(declare-fun parg_node_0x19648bf0_CS0x4042238 () (_ BitVec 64))
(declare-fun LdMem_0x196f3770 () (_ BitVec 64))
(declare-fun pcso_node_0x196d1760 () (_ BitVec 64))
(declare-fun StMem_0x196d18a0 () (_ BitVec 64))
(declare-fun node_0x196f3570 () (_ BitVec 64))
(declare-fun parg_node_0x196483a0_CS0x4042238 () (_ BitVec 64))
(declare-fun LdMem_0x196f3060 () (_ BitVec 64))
(declare-fun pcso_node_0x196e93d0 () (_ BitVec 8))
(declare-fun StMem_0x196e9510 () (_ BitVec 8))
(declare-fun si2f_0x196f31d0 () (_ BitVec 64))
(declare-fun node_0x196f2e60 () (_ BitVec 64))
(declare-fun parg_node_0x19647f50_CS0x4042238 () (_ BitVec 64))
(declare-fun LdMem_0x196f2950 () (_ BitVec 64))
(declare-fun pcso_node_0x196e8d90 () (_ BitVec 8))
(declare-fun StMem_0x196e8f70 () (_ BitVec 8))
(declare-fun si2f_0x196f2ac0 () (_ BitVec 64))
(declare-fun node_0x196f8280 () (_ BitVec 64))
(declare-fun parg_node_0x19655a50_CS0x4042238 () (_ BitVec 64))
(declare-fun LdMem_0x196f7f10 () (_ BitVec 64))
(declare-fun node_0x196c3890_CS0x4042238 () (_ BitVec 64))
(assert
 (and (distinct node_0x7ffff2baa200 (_ bv0 64)) true))
(assert
 (let (($x170 (= node_0x7ffff2b84430 (_ bv1 1))))
 (let (($x182 (= node_0x7ffff2b84700 (_ bv1 1))))
 (let (($x185 (not $x182)))
 (let (($x181 (not $x170)))
 (let (($x186 (or $x181 (and $x185 $x170))))
 (let (($x172 (= node_0x7ffff2b85d10 (_ bv1 1))))
 (let (($x202 (and $x172 $x186)))
 (let (($x180 (= node_0x7ffff2b868b0 (_ bv1 1))))
 (let (($x282 (and $x180 $x202)))
 (let (($x192 (= node_0x7ffff2b874e0 (_ bv1 1))))
 (let (($x329 (and $x192 $x282)))
 (let (($x319 (= node_0x7ffff2b880b0 (_ bv1 1))))
 (let (($x413 (and $x319 $x329)))
 (let (($x656 (and (not (= node_0x7ffff2b88d60 (_ bv1 1))) $x413)))
 (let (($x512 (= node_0x7ffff2b8b6a0 (_ bv1 1))))
 (and $x512 $x656)))))))))))))))))
(assert
 (let (($x201 (= islt_0x7ffff2bd8ce0 (ite (bvslt (_ bv1 32) ccso_node_0x7ffff2bd8ac0) (_ bv1 1) (_ bv0 1)))))
 (let (($x1770 (= node_0x7ffff2b84700 islt_0x7ffff2bd8ce0)))
 (let (($x208 (= islt_0x7ffff2bd9150 (ite (bvslt (_ bv0 32) node_0x7ffff2bc15c0) (_ bv1 1) (_ bv0 1)))))
 (let (($x1905 (= node_0x7ffff2bc15c0 f2si_0x7ffff2bc1760)))
 (let ((?x212 ((_ extract 31 0) node_0x7ffff2bc1210)))
 (let (($x213 (= f2si_0x7ffff2bc1760 ?x212)))
 (let (($x1242 (= node_0x7ffff2bc1210 fadd_0x7ffff2bc1390)))
 (let (($x219 (= fadd_0x7ffff2bc1390 (bvadd node_0x7ffff2bc0df0 (_ bv1 64)))))
 (let (($x1773 (= node_0x7ffff2bc0df0 fdiv_0x7ffff2bc0f90)))
 (let (($x227 (= node_0x7ffff2bbbd50 (_ bv0 64))))
 (let (($x226 (= node_0x7ffff2bb5b00 (_ bv0 64))))
 (let (($x228 (or $x226 $x227)))
 (let (($x225 (= fdiv_0x7ffff2bc0f90 (bvsdiv node_0x7ffff2bb5b00 node_0x7ffff2bbbd50))))
 (let (($x231 (and $x225 (or $x228 (and (distinct fdiv_0x7ffff2bc0f90 (_ bv0 64)) true)))))
 (let (($x2192 (= node_0x7ffff2bb5b00 fsub_0x7ffff2bb5ca0)))
 (let (($x2001 (= node_0x7ffff2bb56b0 LdMem_0x7ffff2bb5830)))
 (let (($x1281 (= StMem_0x19689e90 pcso_node_0xbd64880)))
 (let (($x1874 (= LdMem_0x7ffff2bb5830 StMem_0x19689e90)))
 (let (($x237 (= fsub_0x7ffff2bb5ca0 (bvsub node_0x7ffff2bb4e90 node_0x7ffff2bb56b0))))
 (let (($x925 (= node_0x7ffff2bb4e90 LdMem_0x7ffff2bb5010)))
 (let (($x156 (= StMem_0xbd62f80 pcso_node_0x196dad70)))
 (let (($x1736 (= LdMem_0x7ffff2bb5010 StMem_0xbd62f80)))
 (let ((?x287 (ite (bvslt (_ bv0 32) node_0x7ffff2bc21e0) (_ bv1 1) (_ bv0 1))))
 (let (($x288 (= islt_0x7ffff2bd9550 ?x287)))
 (let (($x2093 (= node_0x7ffff2bc21e0 f2si_0x7ffff2bc2380)))
 (let ((?x292 ((_ extract 31 0) node_0x7ffff2bc1e30)))
 (let (($x293 (= f2si_0x7ffff2bc2380 ?x292)))
 (let (($x2128 (= node_0x7ffff2bc1e30 fadd_0x7ffff2bc1fb0)))
 (let (($x298 (= fadd_0x7ffff2bc1fb0 (bvadd node_0x7ffff2bc1a00 (_ bv1 64)))))
 (let (($x1001 (= node_0x7ffff2bc1a00 fdiv_0x7ffff2bc1ba0)))
 (let (($x307 (or (or (= node_0x7ffff2bb6fd0 (_ bv0 64)) $x227) (and (distinct fdiv_0x7ffff2bc1ba0 (_ bv0 64)) true))))
 (let (($x303 (= fdiv_0x7ffff2bc1ba0 (bvsdiv node_0x7ffff2bb6fd0 node_0x7ffff2bbbd50))))
 (let (($x308 (and $x303 $x307)))
 (let (($x1900 (= node_0x7ffff2bb6fd0 fsub_0x7ffff2bb7170)))
 (let (($x1581 (= node_0x7ffff2bb6b80 LdMem_0x7ffff2bb6d00)))
 (let (($x1849 (= StMem_0xbd64aa0 pcso_node_0xbda11c0)))
 (let (($x1779 (= LdMem_0x7ffff2bb6d00 StMem_0xbd64aa0)))
 (let (($x314 (= fsub_0x7ffff2bb7170 (bvsub node_0x7ffff2bb6300 node_0x7ffff2bb6b80))))
 (let (($x2071 (= node_0x7ffff2bb6300 LdMem_0x7ffff2bb6480)))
 (let (($x1893 (= StMem_0xbda29e0 pcso_node_0x196daeb0)))
 (let (($x1992 (= LdMem_0x7ffff2bb6480 StMem_0xbda29e0)))
 (let ((?x334 (ite (bvslt (_ bv0 32) node_0x7ffff2bc2df0) (_ bv1 1) (_ bv0 1))))
 (let (($x335 (= islt_0x7ffff2bd98c0 ?x334)))
 (let (($x1753 (= node_0x7ffff2bc2df0 f2si_0x7ffff2bc2f90)))
 (let ((?x339 ((_ extract 31 0) node_0x7ffff2bc2a20)))
 (let (($x340 (= f2si_0x7ffff2bc2f90 ?x339)))
 (let (($x1314 (= node_0x7ffff2bc2a20 fadd_0x7ffff2bc2bc0)))
 (let (($x345 (= fadd_0x7ffff2bc2bc0 (bvadd node_0x7ffff2bc2620 (_ bv1 64)))))
 (let (($x1632 (= node_0x7ffff2bc2620 fdiv_0x7ffff2bc27c0)))
 (let (($x2170 (= node_0x7ffff2bbbd50 fmul_0x7ffff2bbbeb0)))
 (let (($x259 (= ccso_node_0x7ffff2bbb910 (_ bv0 64))))
 (let (($x258 (= node_0x7ffff2bba980 (_ bv0 64))))
 (let (($x260 (or $x258 $x259)))
 (let ((?x256 (bvmul node_0x7ffff2bba980 ccso_node_0x7ffff2bbb910)))
 (let (($x257 (= fmul_0x7ffff2bbbeb0 ?x256)))
 (let (($x263 (and $x257 (or $x260 (and (distinct fmul_0x7ffff2bbbeb0 (_ bv0 64)) true)))))
 (let (($x1480 (= node_0x7ffff2bba980 fdiv_0x7ffff2bbab20)))
 (let (($x273 (or (or (= (_ bv1 64) (_ bv0 64)) (= node_0x7ffff2bb8dc0 (_ bv0 64))) (and (distinct fdiv_0x7ffff2bbab20 (_ bv0 64)) true))))
 (let (($x274 (and (= fdiv_0x7ffff2bbab20 (bvsdiv (_ bv1 64) node_0x7ffff2bb8dc0)) $x273)))
 (let (($x1758 (= node_0x7ffff2bb8dc0 LdMem_0x7ffff2bb8f40)))
 (let (($x2016 (= LdMem_0x7ffff2bb8f40 StMem_0x7ffff2baf4a0)))
 (let (($x354 (or (or (= node_0x7ffff2bb8480 (_ bv0 64)) $x227) (and (distinct fdiv_0x7ffff2bc27c0 (_ bv0 64)) true))))
 (let (($x350 (= fdiv_0x7ffff2bc27c0 (bvsdiv node_0x7ffff2bb8480 node_0x7ffff2bbbd50))))
 (let (($x355 (and $x350 $x354)))
 (let (($x2242 (= node_0x7ffff2bb8480 fsub_0x7ffff2bb8620)))
 (let (($x2014 (= node_0x7ffff2bb8010 LdMem_0x7ffff2bb81b0)))
 (let (($x111 (= StMem_0xbdb5ca0 pcso_node_0xbdb5b20)))
 (let (($x1982 (= LdMem_0x7ffff2bb81b0 StMem_0xbdb5ca0)))
 (let (($x361 (= fsub_0x7ffff2bb8620 (bvsub node_0x7ffff2bb77a0 node_0x7ffff2bb8010))))
 (let (($x135 (= node_0x7ffff2bb77a0 LdMem_0x7ffff2bb7940)))
 (let (($x1505 (= StMem_0xbdac0c0 pcso_node_0x196daff0)))
 (let (($x1638 (= LdMem_0x7ffff2bb7940 StMem_0xbdac0c0)))
 (let (($x528 (= ccso_node_0x7ffff2bdc410 (_ bv1 32))))
 (let ((?x473 (ite $x528 (_ bv1 1) (_ bv0 1))))
 (let (($x378 (= ieq_0x7ffff2bdc630 ?x473)))
 (let (($x906 (= node_0x7ffff2b88d60 ieq_0x7ffff2bdc630)))
 (let ((?x571 (ite (and (distinct carg_node_0x7ffff2b83740 (_ bv0 32)) true) (_ bv1 1) (_ bv0 1))))
 (let (($x623 (= ine_0x7ffff2be1120 ?x571)))
 (let (($x2178 (= node_0x7ffff2be0f80 ine_0x7ffff2be1120)))
 (let (($x644 (= and_0x7ffff2be1470 (bvand node_0x7ffff2be0a90 node_0x7ffff2be0f80))))
 (let ((?x655 (ite (bvsgt ccso_node_0x7ffff2be08a0 carg_node_0x7ffff2b835c0) (_ bv1 1) (_ bv0 1))))
 (let (($x388 (= isgt_0x7ffff2be0c10 ?x655)))
 (let (($x1767 (= node_0x7ffff2be0a90 isgt_0x7ffff2be0c10)))
 (let (($x417 (= ine_0x7ffff2bda930 (ite (and (distinct node_0x7ffff2bda590 (_ bv0 64)) true) (_ bv1 1) (_ bv0 1)))))
 (let (($x2245 (= node_0x7ffff2bda590 LdMem_0x7ffff2bda6f0)))
 (let (($x1635 (= StMem_0x196face0 pcso_node_0x196fab30)))
 (let (($x1708 (= StMem_0x196eb7c0 pcso_node_0x196eb680)))
 (let (($x1915 (= LdMem_0x7ffff2bda6f0 StMem_0x196face0)))
 (let (($x1151 (= LdMem_0x7ffff2bda6f0 StMem_0x196eb7c0)))
 (let (($x1127 (or $x1151 $x1915)))
 (let (($x437 (= and_0xbeaa1c0 (bvand R0xbe9eb10 R0xbea8520))))
 (let (($x1991 (= R0xbea9f80 and_0xbeaa1c0)))
 (let (($x1764 (or (not (= R0xbea9f80 (_ bv1 1))) $x1915)))
 (let (($x924 (= R0xbeaa7b0 and_0xbeaab40)))
 (let (($x421 (= and_0xbeaab40 (bvand R0xbea8520 R0xbeaa380))))
 (let (($x290 (= and_0xbea8840 (bvand R0xbe94da0 R0xbea7b50))))
 (let (($x1627 (= R0xbea8520 and_0xbea8840)))
 (let (($x2047 (= R0xbeaa380 xor_0xbeaa560)))
 (let (($x365 (= xor_0xbeaa560 (bvxor R0xbe9eb10 (_ bv1 1)))))
 (let (($x1373 (= R0xbe9eb10 and_0xbe9ee30)))
 (let (($x431 (= and_0xbe9ee30 (bvand R0xbe94da0 R0x7ffff2b83ef0))))
 (let (($x834 (= R0x7ffff2b83ef0 node_0x7ffff2b84430)))
 (let (($x177 (= islt_0x7ffff2bd6840 (ite (bvslt (_ bv0 32) ccso_node_0x7ffff2bd6620) (_ bv1 1) (_ bv0 1)))))
 (let (($x1537 (= node_0x7ffff2b84430 islt_0x7ffff2bd6840)))
 (and $x1537 $x177 $x834 $x431 $x1373 $x365 $x2047 $x1627 $x290 $x421 $x924 (or (not (= R0xbeaa7b0 (_ bv1 1))) $x1151) $x1764 $x1991 $x437 $x1127 $x1708 $x1635 $x2245 $x417 (= node_0x7ffff2b880b0 ine_0x7ffff2bda930) $x1767 $x388 $x644 $x2178 $x623 (= node_0x7ffff2b8b6a0 and_0x7ffff2be1470) $x906 $x378 (or (not (= R0x7ffff2b827c0 (_ bv1 1))) $x1638) $x1638 $x1505 $x135 $x361 (or (not (= R0x7ffff2b827c0 (_ bv1 1))) $x1982) $x1982 $x111 $x2014 $x2242 $x355 (or (not (= R0x7ffff2b827c0 (_ bv1 1))) $x2016) $x2016 (= StMem_0x7ffff2baf4a0 carg_node_0x7ffff2b83440) $x1758 $x274 $x1480 $x263 $x2170 $x1632 $x345 $x1314 $x340 $x1753 $x335 (= node_0x7ffff2b874e0 islt_0x7ffff2bd98c0) (or (not (= R0x7ffff2b827c0 (_ bv1 1))) $x1992) $x1992 $x1893 $x2071 $x314 (or (not (= R0x7ffff2b827c0 (_ bv1 1))) $x1779) $x1779 $x1849 $x1581 $x1900 $x308 $x1001 $x298 $x2128 $x293 $x2093 $x288 (= node_0x7ffff2b868b0 islt_0x7ffff2bd9550) (or (not (= R0x7ffff2b827c0 (_ bv1 1))) $x1736) $x1736 $x156 $x925 $x237 (or (not (= R0x7ffff2b827c0 (_ bv1 1))) $x1874) $x1874 $x1281 $x2001 $x2192 $x231 $x1773 $x219 $x1242 $x213 $x1905 $x208 (= node_0x7ffff2b85d10 islt_0x7ffff2bd9150) $x1770 $x201))))))))))))))))))))))))))))))))))))))))))))))))))))))))))))))))))))))))))))))))))))))))))))))))))))))))))
(assert
 (= parg_node_0x1151b690_CS0x4044400 node_0x1971c550))
(assert
 (let (($x1255 (= node_0x1971c550 LdMem_0x1971a1d0)))
 (let (($x1082 (= StMem_0x196ffcf0 pcso_node_0x196fd890)))
 (let (($x1663 (= LdMem_0x1971a1d0 StMem_0x196ffcf0)))
 (let (($x491 (= R0xbeae030 and_0xbeae330)))
 (let (($x221 (= and_0xbeae330 (bvand R0xbeab3d0 R0x7ffff2b83ef0))))
 (let (($x383 (= and_0xbeab790 (bvand R0xbe9d6c0 R0xbea9f80))))
 (let (($x898 (= R0xbeab3d0 and_0xbeab790)))
 (and $x898 $x383 $x221 $x491 (or (not (= R0xbeae030 (_ bv1 1))) $x1663) $x1663 $x1082 $x1255)))))))))
(assert
 (= return_node_0x7ffff2c309b0_CS0x4044400 ccso_node_0x7ffff2be08a0))
(assert
 (= parg_node_0x1151b690_CS0x4043330 node_0x1970e0c0))
(assert
 (let (($x1780 (= node_0x1970e0c0 LdMem_0x1970bd40)))
 (let (($x1859 (= LdMem_0x1970bd40 StMem_0x196ffcf0)))
 (and (or (not (= R0xbeae030 (_ bv1 1))) $x1859) $x1859 $x1780))))
(assert
 (= return_node_0x7ffff2c309b0_CS0x4043330 ccso_node_0x7ffff2bdc410))
(assert
 (= parg_node_0x1151b690_CS0x4041bb0 node_0x196eeb60))
(assert
 (let (($x1829 (= node_0x196eeb60 LdMem_0x196eca10)))
 (let (($x1973 (= StMem_0x196dbc40 parg_node_0x196dbd50)))
 (let (($x1907 (= LdMem_0x196eca10 StMem_0x196dbc40)))
 (and (or (not (= R0x7ffff2b827c0 (_ bv1 1))) $x1907) $x1907 $x1973 $x1829)))))
(assert
 (= return_node_0x7ffff2c309b0_CS0x4041bb0 ccso_node_0x7ffff2bd6620))
(assert
 (= parg_node_0x1151b690_CS0x4049a80 node_0x19704cf0))
(assert
 (let (($x1983 (= node_0x19704cf0 LdMem_0x19702970)))
 (let (($x2144 (= LdMem_0x19702970 StMem_0x196dbc40)))
 (and (or (not (= R0x7ffff2b827c0 (_ bv1 1))) $x2144) $x2144 $x1983))))
(assert
 (= return_node_0x7ffff2c309b0_CS0x4049a80 ccso_node_0x7ffff2bd8ac0))
(assert
 (= carg_node_0x7ffff2c351c0_CS0x4041730 node_0x7ffff2bc2df0))
(assert
 (= carg_node_0x7ffff2c34e60_CS0x4041730 node_0x7ffff2bc15c0))
(assert
 (= carg_node_0x7ffff2c35640_CS0x4041730 (_ bv0 64)))
(assert
 (= carg_node_0x7ffff2c34fc0_CS0x4041730 node_0x7ffff2bc21e0))
(assert
 (= parg_node_0x19582c60_CS0x4041730 node_0x196e74e0))
(assert
 (let (($x1558 (= node_0x196e74e0 LdMem_0x196e7280)))
 (let (($x1694 (= StMem_0x196d3b90 pcso_node_0x196d3a10)))
 (let (($x107 (= LdMem_0x196e7280 StMem_0x196d3b90)))
 (and (or (not (= R0x7ffff2b827c0 (_ bv1 1))) $x107) $x107 $x1694 $x1558)))))
(assert
 (= parg_node_0x19583480_CS0x4041730 node_0x196e7850))
(assert
 (= node_0x196e7850 LdMem_0x196e76e0))
(assert
 (= parg_node_0x19582710_CS0x4041730 node_0x196e9290))
(assert
 (let (($x1212 (= node_0x196e9290 LdMem_0x196e7140)))
 (let (($x1628 (= LdMem_0x196e7140 StMem_0x196d3e60)))
 (and (or (not (= R0x7ffff2b827c0 (_ bv1 1))) $x1628) $x1628 (= StMem_0x196d3e60 pcso_node_0x196d3ce0) $x1212))))
(assert
 (= node_0x1959c8d0_CS0x4041730 pcso_node_0x196eb680))
(assert
 (= parg_node_0xbd1c420_CS0x4042238 node_0x196f0f60))
(assert
 (let (($x1248 (= node_0x196f0f60 LdMem_0x196f0bf0)))
 (let (($x849 (= LdMem_0x196f0bf0 StMem_0x196ea2f0)))
 (and (or (not (= R0x7ffff2b827c0 (_ bv1 1))) $x849) $x849 (= StMem_0x196ea2f0 pcso_node_0x196ea1b0) $x1248))))
(assert
 (= parg_node_0x1964bd40_CS0x4042238 node_0x196f5a20))
(assert
 (let (($x2220 (= node_0x196f5a20 LdMem_0x196f56b0)))
 (let (($x1757 (= LdMem_0x196f56b0 StMem_0x196e9c00)))
 (and (or (not (= R0x7ffff2b827c0 (_ bv1 1))) $x1757) $x1757 (= StMem_0x196e9c00 pcso_node_0x196e9ac0) $x2220))))
(assert
 (= parg_node_0xbd0e560_CS0x4042238 node_0x196f09f0))
(assert
 (let (($x1347 (= node_0x196f09f0 LdMem_0x196f0680)))
 (let (($x1475 (= StMem_0x196ea0a0 pcso_node_0x196e9f60)))
 (let (($x2241 (= LdMem_0x196f0680 StMem_0x196ea0a0)))
 (and (or (not (= R0x7ffff2b827c0 (_ bv1 1))) $x2241) $x2241 $x1475 $x1347)))))
(assert
 (= parg_node_0x1964b510_CS0x4042238 node_0x196f54b0))
(assert
 (let (($x911 (= node_0x196f54b0 LdMem_0x196f5140)))
 (let (($x2092 (= StMem_0x196e99b0 pcso_node_0x196e9870)))
 (let (($x1903 (= LdMem_0x196f5140 StMem_0x196e99b0)))
 (and (or (not (= R0x7ffff2b827c0 (_ bv1 1))) $x1903) $x1903 $x2092 $x911)))))
(assert
 (= parg_node_0x19647ca0_CS0x4042238 node_0x196f2750))
(assert
 (let (($x1416 (= node_0x196f2750 LdMem_0x196f0420)))
 (let (($x2108 (= StMem_0x196e9e50 pcso_node_0x196e9d10)))
 (let (($x675 (= LdMem_0x196f0420 StMem_0x196e9e50)))
 (and (or (not (= R0x7ffff2b827c0 (_ bv1 1))) $x675) $x675 $x2108 $x1416)))))
(assert
 (= parg_node_0x1964a4b0_CS0x4042238 node_0x196f6cf0))
(assert
 (let (($x130 (= node_0x196f6cf0 LdMem_0x196f47c0)))
 (let (($x2130 (= StMem_0x196d2240 pcso_node_0x196d20c0)))
 (let (($x2070 (= LdMem_0x196f47c0 StMem_0x196d2240)))
 (and (or (not (= R0x7ffff2b827c0 (_ bv1 1))) $x2070) $x2070 $x2130 $x130)))))
(assert
 (= parg_node_0x1964ace0_CS0x4042238 node_0x196f4f40))
(assert
 (let (($x1095 (= node_0x196f4f40 LdMem_0x196f4bd0)))
 (let (($x2067 (= StMem_0x196e9760 pcso_node_0x196e9620)))
 (let (($x2103 (= LdMem_0x196f4bd0 StMem_0x196e9760)))
 (and (or (not (= R0x7ffff2b827c0 (_ bv1 1))) $x2103) $x2103 $x2067 $x1095)))))
(assert
 (= parg_node_0x19649c90_CS0x4042238 node_0x196f45c0))
(assert
 (let (($x131 (= node_0x196f45c0 LdMem_0x196f4250)))
 (let (($x1344 (= StMem_0x196d1af0 pcso_node_0x196d19b0)))
 (let (($x1489 (= LdMem_0x196f4250 StMem_0x196d1af0)))
 (and (or (not (= R0x7ffff2b827c0 (_ bv1 1))) $x1489) $x1489 $x1344 $x131)))))
(assert
 (= parg_node_0x19649440_CS0x4042238 node_0x196f4050))
(assert
 (let (($x2059 (= node_0x196f4050 LdMem_0x196f3ce0)))
 (let (($x1562 (= StMem_0x196d1f90 pcso_node_0x196d1e50)))
 (let (($x1522 (= LdMem_0x196f3ce0 StMem_0x196d1f90)))
 (and (or (not (= R0x7ffff2b827c0 (_ bv1 1))) $x1522) $x1522 $x1562 $x2059)))))
(assert
 (= parg_node_0x19648bf0_CS0x4042238 node_0x196f3ae0))
(assert
 (let (($x1711 (= node_0x196f3ae0 LdMem_0x196f3770)))
 (let (($x2046 (= StMem_0x196d18a0 pcso_node_0x196d1760)))
 (let (($x2117 (= LdMem_0x196f3770 StMem_0x196d18a0)))
 (and (or (not (= R0x7ffff2b827c0 (_ bv1 1))) $x2117) $x2117 $x2046 $x1711)))))
(assert
 (= parg_node_0x196483a0_CS0x4042238 node_0x196f3570))
(assert
 (let (($x1541 (= node_0x196f3570 LdMem_0x196f3060)))
 (let (($x1355 (= StMem_0x196e9510 pcso_node_0x196e93d0)))
 (let (($x755 (= si2f_0x196f31d0 ((_ sign_extend 56) StMem_0x196e9510))))
 (let (($x1380 (= LdMem_0x196f3060 si2f_0x196f31d0)))
 (and (or (not (= R0x7ffff2b827c0 (_ bv1 1))) $x1380) $x1380 $x755 $x1355 $x1541))))))
(assert
 (= parg_node_0x19647f50_CS0x4042238 node_0x196f2e60))
(assert
 (let (($x99 (= node_0x196f2e60 LdMem_0x196f2950)))
 (let (($x967 (= StMem_0x196e8f70 pcso_node_0x196e8d90)))
 (let (($x772 (= si2f_0x196f2ac0 ((_ sign_extend 56) StMem_0x196e8f70))))
 (let (($x1752 (= LdMem_0x196f2950 si2f_0x196f2ac0)))
 (and (or (not (= R0x7ffff2b827c0 (_ bv1 1))) $x1752) $x1752 $x772 $x967 $x99))))))
(assert
 (= parg_node_0x19655a50_CS0x4042238 node_0x196f8280))
(assert
 (let (($x2106 (= node_0x196f8280 LdMem_0x196f7f10)))
 (let (($x1821 (= LdMem_0x196f7f10 StMem_0x196eb7c0)))
 (and (or (not (= R0xbe94da0 (_ bv1 1))) $x1821) $x1821 $x2106))))
(assert
 (= node_0x196c3890_CS0x4042238 pcso_node_0x196fab30))
(assert
 (and (distinct node_0x7ffff2baa200 (_ bv0 64)) true))
(maximize and_0xbeaab40)
(minimize return_node_0x7ffff2c309b0_CS0x4041bb0)
(maximize LdMem_0x196f5140)
(minimize LdMem_0x7ffff2bb8f40)
(minimize node_0x7ffff2bc2a20)
(maximize node_0x7ffff2bc15c0)
(maximize parg_node_0x19582710_CS0x4041730)
(minimize node_0x7ffff2b880b0)
(minimize ccso_node_0x7ffff2bd6620)
(maximize StMem_0x196d3b90)
(maximize StMem_0x7ffff2baf4a0)
(maximize R0xbeab3d0)
(maximize StMem_0x196e9e50)
(minimize node_0x196c3890_CS0x4042238)
(check-sat)
(get-objectives)
